c Sudoku solution
p cnf 729 0
115 0
133 0
158 0
189 0
218 0
247 0
254 0
296 0
343 0
352 0
391 0
419 0
428 0
441 0
146 0
161 0
527 0
544 0
555 0
582 0
598 0
673 0
513 0
283 0
724 0
122 0
272 0
265 0
369 0
326 0
566 0
531 0
625 0
681 0
579 0
239 0
221 0
737 0
317 0
334 0
614 0
697 0
636 0
432 0
659 0
194 0
177 0
495 0
856 0
916 0
948 0
935 0
838 0
642 0
668 0
467 0
453 0
751 0
712 0
811 0
763 0
957 0
799 0
745 0
849 0
971 0
887 0
875 0
984 0
864 0
962 0
892 0
993 0
823 0
929 0
474 0
486 0
378 0
385 0
776 0
788 0
